Minimize
  - 6 y_0 - 20 y_1 - 33 y_2 - 20 y_3 - 4 y_5 - 21 y_6 - 7 y_7 - 24 y_8
   - 15 y_9 - 29 y_10 - 18 y_11 - 21 y_12 - 18 y_13 - 17 y_14 - 7 y_15
   - 21 y_16 - 19 y_17 - 16 y_18 - 13 y_19 + 118 x_0_2 + 78 x_0_8
   + 66 x_0_11 + 68 x_0_14 + 56 x_0_17 + 46 x_0_18 + 82 x_1_2 + 63 x_1_5
   + 79 x_1_9 + 26 x_1_11 + 15 x_1_14 + 34 x_1_19 + 131 x_2_4 + 57 x_3_7
   + 57 x_3_9 + 9 x_3_11 + 27 x_3_19 + 116 x_4_10 + 86 x_4_12 + 69 x_4_14
   + 15 x_5_7 + 53 x_5_14 + 26 x_6_8 + 22 x_6_9 + 27 x_6_12 + 72 x_6_14
   + 75 x_6_16 + 59 x_6_19 + 35 x_7_9 + 49 x_7_11 + 58 x_7_12 + 44 x_7_13
   + 12 x_7_15 + 41 x_7_18 + 51 x_8_11 + 12 x_8_12 + 64 x_8_14 + 61 x_8_16
   + 24 x_8_17 + 35 x_8_18 + 58 x_8_19 + 33 x_9_15 + 7 x_9_18 + 47 x_9_19
   + 95 x_10_15 + 27 x_11_13 + 51 x_12_16 + 31 x_12_18 + 46 x_12_19
   + 39 x_13_14 + 24 x_13_17 + 40 x_15_18 + 43 x_15_19 + 65 x_16_17
   + 31 x_16_19 + 12 x_17_18 + 48 x_18_19 + 329 Constant
Subject To
 c_0: y_13 = 1
 c_1_0: y_0 >= 1
 c_1_1: y_1 >= 1
 c_1_2: y_2 >= 1
 c_1_3: y_3 >= 1
 c_1_4: y_4 >= 1
 c_1_5: y_5 >= 1
 c_1_6: y_6 >= 1
 c_1_7: y_7 >= 1
 c_1_8: y_8 >= 1
 c_1_9: y_9 >= 1
 c_1_10: y_10 >= 1
 c_1_11: y_11 >= 1
 c_1_12: y_12 >= 1
 c_1_13: y_13 >= 1
 c_1_14: y_14 >= 1
 c_1_15: y_15 >= 1
 c_1_16: y_16 >= 1
 c_1_17: y_17 >= 1
 c_1_18: y_18 >= 1
 c_1_19: y_19 >= 1
 c_2_0: - 2 y_0 + x_0_2 + x_0_8 + x_0_11 + x_0_14 + x_0_17 + x_0_18 = 0
 c_2_1: - 2 y_1 + x_1_2 + x_1_5 + x_1_9 + x_1_11 + x_1_14 + x_1_19 = 0
 c_2_2: - 2 y_2 + x_0_2 + x_1_2 + x_2_4 = 0
 c_2_3: - 2 y_3 + x_3_7 + x_3_9 + x_3_11 + x_3_19 = 0
 c_2_4: - 2 y_4 + x_2_4 + x_4_10 + x_4_12 + x_4_14 = 0
 c_2_5: - 2 y_5 + x_1_5 + x_5_7 + x_5_14 = 0
 c_2_6: - 2 y_6 + x_6_8 + x_6_9 + x_6_12 + x_6_14 + x_6_16 + x_6_19 = 0
 c_2_7: - 2 y_7 + x_3_7 + x_5_7 + x_7_9 + x_7_11 + x_7_12 + x_7_13 + x_7_15
   + x_7_18 = 0
 c_2_8: - 2 y_8 + x_0_8 + x_6_8 + x_8_11 + x_8_12 + x_8_14 + x_8_16
   + x_8_17 + x_8_18 + x_8_19 = 0
 c_2_9: - 2 y_9 + x_1_9 + x_3_9 + x_6_9 + x_7_9 + x_9_15 + x_9_18 + x_9_19
   = 0
 c_2_10: - 2 y_10 + x_4_10 + x_10_15 = 0
 c_2_11: - 2 y_11 + x_0_11 + x_1_11 + x_3_11 + x_7_11 + x_8_11 + x_11_13
   = 0
 c_2_12: - 2 y_12 + x_4_12 + x_6_12 + x_7_12 + x_8_12 + x_12_16 + x_12_18
   + x_12_19 = 0
 c_2_13: - 2 y_13 + x_7_13 + x_11_13 + x_13_14 + x_13_17 = 0
 c_2_14: - 2 y_14 + x_0_14 + x_1_14 + x_4_14 + x_5_14 + x_6_14 + x_8_14
   + x_13_14 = 0
 c_2_15: - 2 y_15 + x_7_15 + x_9_15 + x_10_15 + x_15_18 + x_15_19 = 0
 c_2_16: - 2 y_16 + x_6_16 + x_8_16 + x_12_16 + x_16_17 + x_16_19 = 0
 c_2_17: - 2 y_17 + x_0_17 + x_8_17 + x_13_17 + x_16_17 + x_17_18 = 0
 c_2_18: - 2 y_18 + x_0_18 + x_7_18 + x_8_18 + x_9_18 + x_12_18 + x_15_18
   + x_17_18 + x_18_19 = 0
 c_2_19: - 2 y_19 + x_1_19 + x_3_19 + x_6_19 + x_8_19 + x_9_19 + x_12_19
   + x_15_19 + x_16_19 + x_18_19 = 0
Bounds
 Constant = 1
Binaries
 y_0 y_1 y_2 y_3 y_4 y_5 y_6 y_7 y_8 y_9 y_10 y_11 y_12 y_13 y_14 y_15 y_16
 y_17 y_18 y_19 x_0_2 x_0_8 x_0_11 x_0_14 x_0_17 x_0_18 x_1_2 x_1_5 x_1_9
 x_1_11 x_1_14 x_1_19 x_2_4 x_3_7 x_3_9 x_3_11 x_3_19 x_4_10 x_4_12 x_4_14
 x_5_7 x_5_14 x_6_8 x_6_9 x_6_12 x_6_14 x_6_16 x_6_19 x_7_9 x_7_11 x_7_12
 x_7_13 x_7_15 x_7_18 x_8_11 x_8_12 x_8_14 x_8_16 x_8_17 x_8_18 x_8_19
 x_9_15 x_9_18 x_9_19 x_10_15 x_11_13 x_12_16 x_12_18 x_12_19 x_13_14
 x_13_17 x_15_18 x_15_19 x_16_17 x_16_19 x_17_18 x_18_19
End
